c BabySAT DPLL SAT Solver
c
c Copyright (c) 2026, Benjamin Deutsch
c Version 0.0.4 3f70528ad16f8c5ae9a5b9cc5ac28edf924451f6
c Compiled with 'g++ -Wall -std=c++11 -O3 -DNDEBUG'
c
c reading from 'cnfs/prime4.cnf'
c parsed header 'p cnf 20 49'
c
c             decisions             variables
c   seconds              conflicts            remaining
c
c *    0.00           0           0        19  95%
c d    0.00           1           0         9  45%
c d    0.00           2           1         8  40%
c 1    0.00           2           1         8  40%
c
s SATISFIABLE
v 1 -2 3 -4 -5 -6 7 -8 -9 -10 -11 12 -13 14 -15 -16 17 18 19 20 0
c
c conflicts:                     1       336.36 per second
c decisions:                     2       672.72 per second
c propagations:                  0         0.00 million per second
c
c process-time:               0.00 seconds
c
c exit code 10
